experiments/eusolverstring/6/TrainGenes/11101110010101010110100000000010010001110001000100101110010000100011000/52_.out
1 {f:func42("Dr."," ",func4(Param0," "))}
0.0002010000
0.0000000000
1.3587040000
